p tw 155 412
0 1
0 2
0 3
0 16
0 79
1 2
1 3
1 15
1 80
1 85
1 139
2 3
2 10
2 11
2 12
2 13
2 14
3 17
3 84
3 107
4 5
4 55
4 81
4 82
4 83
5 56
5 93
5 134
5 140
6 7
6 8
6 9
6 74
6 118
6 124
7 8
7 9
7 75
7 117
7 141
8 9
8 90
9 69
10 11
10 12
10 13
10 14
10 65
10 66
10 67
10 68
11 12
11 13
11 14
11 88
12 13
12 14
12 112
12 135
12 154
13 14
13 87
13 136
13 153
14 15
14 16
14 17
15 16
15 17
15 80
15 85
15 139
16 17
16 79
17 84
17 107
18 19
18 89
19 39
20 21
20 74
20 75
21 69
21 90
21 124
21 141
22 23
22 24
22 25
22 98
22 111
22 120
22 127
23 24
23 25
23 110
24 25
24 37
24 94
24 119
25 97
25 125
26 27
26 28
26 29
26 30
26 31
26 49
26 58
26 70
26 71
27 28
27 29
27 30
27 31
27 105
28 29
28 30
28 31
28 99
29 30
29 31
29 137
30 31
30 67
30 100
30 144
30 152
31 86
32 33
32 61
33 62
33 104
33 126
33 146
33 150
34 35
34 36
34 71
34 72
34 73
35 36
35 57
35 58
35 59
36 52
36 106
37 38
37 94
37 119
38 42
39 51
39 72
39 89
40 41
40 125
40 126
40 127
40 128
41 150
42 92
42 117
42 118
42 119
42 120
43 44
43 116
43 133
43 147
43 148
44 113
44 121
45 46
45 47
45 48
45 60
45 143
46 47
46 48
46 130
47 48
47 54
47 64
47 142
48 131
49 50
49 51
49 58
49 70
49 71
50 51
50 57
50 73
51 72
51 89
52 53
52 54
52 106
53 54
53 63
53 122
53 123
54 64
54 142
55 56
55 81
55 82
55 83
56 93
56 134
56 140
57 58
57 59
57 73
58 59
58 70
58 71
59 106
59 122
60 61
60 62
60 63
60 64
60 143
61 62
61 63
61 64
62 63
62 64
62 104
62 126
62 146
62 150
63 64
63 122
63 123
64 142
65 66
65 67
65 68
65 101
65 147
65 149
66 67
66 68
66 102
66 151
66 153
67 68
67 100
67 144
67 152
68 78
69 90
69 124
69 141
70 71
70 105
71 72
71 73
72 73
72 89
74 75
74 118
74 124
75 117
75 141
76 77
76 81
76 95
76 109
76 140
77 82
77 134
78 151
78 152
79 80
80 85
80 139
81 82
81 83
81 95
81 109
81 140
82 83
82 134
83 91
83 92
83 93
84 85
84 107
85 139
86 137
86 144
87 88
87 136
87 153
90 124
90 141
91 92
91 93
91 94
92 93
92 117
92 118
92 119
92 120
93 134
93 140
94 119
95 96
95 109
95 140
96 108
97 98
97 125
98 111
98 120
98 127
99 100
100 144
100 152
101 102
101 147
101 149
102 151
102 153
103 104
103 128
103 145
104 126
104 146
104 150
106 122
107 139
108 109
108 110
108 111
109 110
109 111
109 140
110 111
111 120
111 127
112 113
112 114
112 115
112 116
112 135
112 154
113 114
113 115
113 116
113 121
114 115
114 116
114 129
115 116
115 138
116 133
116 147
116 148
117 118
117 119
117 120
117 141
118 119
118 120
118 124
119 120
120 127
121 129
121 138
121 148
121 154
122 123
123 142
123 143
124 141
125 126
125 127
125 128
126 127
126 128
126 146
126 150
127 128
128 145
129 138
129 148
129 154
130 131
132 133
132 149
133 147
133 148
134 140
135 136
135 154
136 153
137 144
138 148
138 154
142 143
144 152
145 146
146 150
147 148
147 149
148 154
151 152
151 153
